(set-option :print-success false)
(set-logic QF_UF)
(declare-sort x72 0)
(declare-sort x102 0)
(declare-fun x149 () x102)
(declare-fun x29 () x102)
(declare-fun x35 (x102 x102) x102)
(declare-fun x112 () x102)
(declare-fun x45 (x102 x102) x102)
(declare-fun x105 () x102)
(declare-fun x6 () x102)
(assert (and (and (or (= (x45 x6 (x45 x105 x6)) x105) (or (or (or (= x105 (x45 x112 (x45 x105 x112))) (= x105 (x45 x149 (x45 x105 x149)))) (= x105 (x45 x29 (x45 x105 x29)))) (= (x45 x105 (x45 x105 x105)) x105))) (and (or (= (x45 x6 (x45 x29 x6)) x29) (or (or (= x29 (x45 x29 (x45 x29 x29))) (or (= x29 (x45 x112 (x45 x29 x112))) (= (x45 x149 (x45 x29 x149)) x29))) (= (x45 x105 (x45 x29 x105)) x29))) (and (or (= (x45 x6 (x45 x149 x6)) x149) (or (= (x45 x105 (x45 x149 x105)) x149) (or (or (= x149 (x45 x149 (x45 x149 x149))) (= (x45 x112 (x45 x149 x112)) x149)) (= x149 (x45 x29 (x45 x149 x29)))))) (or (or (or (or (= (x45 x149 (x45 x112 x149)) x112) (= (x45 x112 (x45 x112 x112)) x112)) (= (x45 x29 (x45 x112 x29)) x112)) (= x112 (x45 x105 (x45 x112 x105)))) (= x112 (x45 x6 (x45 x112 x6))))))) (or (or (or (= x6 (x45 x29 (x45 x6 x29))) (or (= x6 (x45 x112 (x45 x6 x112))) (= (x45 x149 (x45 x6 x149)) x6))) (= (x45 x105 (x45 x6 x105)) x6)) (= x6 (x45 x6 (x45 x6 x6))))))
(assert (let ((x155 (x45 x29 x149)) (x154 (x45 x105 x29)) (x96 (x45 x149 x29)) (x78 (x45 x105 x149)) (x58 (x45 x105 x6)) (x151 (x45 x112 x6)) (x46 (x45 x149 x6)) (x4 (x45 x29 x29)) (x133 (x45 x6 x112)) (x11 (x45 x29 x112)) (x86 (x45 x112 x105)) (x21 (x45 x29 x105)) (x93 (x45 x105 x105)) (x142 (x45 x6 x149)) (x139 (x45 x105 x112)) (x122 (x45 x6 x105)) (x38 (x45 x29 x6)) (x159 (x45 x112 x112)) (x71 (x45 x149 x112)) (x140 (x45 x149 x105)) (x31 (x45 x6 x29)) (x39 (x45 x112 x29)) (x126 (x45 x149 x149)) (x15 (x45 x112 x149)) (x97 (x45 x6 x6))) (and (and (and (and (and (and (and (and (or (or (or (= x159 x29) (or (= x159 x149) (= x159 x112))) (= x105 x159)) (= x159 x6)) (or (= x15 x6) (or (= x105 x15) (or (= x15 x29) (or (= x15 x112) (= x149 x15)))))) (or (or (or (= x39 x29) (or (= x39 x149) (= x112 x39))) (= x105 x39)) (= x6 x39))) (or (or (or (= x29 x86) (or (= x86 x112) (= x86 x149))) (= x86 x105)) (= x86 x6))) (or (= x151 x6) (or (or (= x29 x151) (or (= x149 x151) (= x112 x151))) (= x151 x105)))) (and (or (= x46 x6) (or (= x105 x46) (or (or (= x46 x149) (= x46 x112)) (= x29 x46)))) (and (and (or (or (= x105 x96) (or (= x29 x96) (or (= x96 x149) (= x112 x96)))) (= x6 x96)) (and (or (= x6 x126) (or (= x105 x126) (or (= x29 x126) (or (= x126 x112) (= x126 x149))))) (or (= x71 x6) (or (= x71 x105) (or (= x71 x29) (or (= x71 x112) (= x149 x71))))))) (or (or (= x105 x140) (or (= x29 x140) (or (= x149 x140) (= x112 x140)))) (= x140 x6))))) (and (or (or (or (= x29 x38) (or (= x112 x38) (= x38 x149))) (= x38 x105)) (= x6 x38)) (and (or (= x21 x6) (or (= x105 x21) (or (= x21 x29) (or (= x149 x21) (= x112 x21))))) (and (or (or (= x105 x4) (or (or (= x4 x149) (= x112 x4)) (= x4 x29))) (= x4 x6)) (and (or (or (or (or (= x155 x149) (= x155 x112)) (= x29 x155)) (= x155 x105)) (= x6 x155)) (or (= x6 x11) (or (or (= x11 x29) (or (= x149 x11) (= x11 x112))) (= x105 x11)))))))) (and (and (and (and (or (or (= x105 x78) (or (= x29 x78) (or (= x78 x112) (= x149 x78)))) (= x78 x6)) (or (or (= x105 x139) (or (= x139 x29) (or (= x139 x112) (= x139 x149)))) (= x6 x139))) (or (= x154 x6) (or (= x154 x105) (or (or (= x154 x149) (= x112 x154)) (= x29 x154))))) (or (= x93 x6) (or (or (or (= x93 x149) (= x93 x112)) (= x29 x93)) (= x93 x105)))) (or (= x58 x6) (or (or (= x29 x58) (or (= x58 x112) (= x149 x58))) (= x105 x58))))) (and (and (and (or (or (or (= x29 x31) (or (= x149 x31) (= x112 x31))) (= x105 x31)) (= x6 x31)) (and (or (or (= x105 x133) (or (= x133 x29) (or (= x133 x112) (= x133 x149)))) (= x6 x133)) (or (or (= x105 x142) (or (or (= x142 x112) (= x149 x142)) (= x29 x142))) (= x6 x142)))) (or (= x122 x6) (or (= x105 x122) (or (= x122 x29) (or (= x149 x122) (= x112 x122)))))) (or (= x97 x6) (or (or (or (= x149 x97) (= x97 x112)) (= x97 x29)) (= x105 x97)))))))
(assert (let ((x38 (x45 x29 x6)) (x86 (x45 x112 x105)) (x11 (x45 x29 x112)) (x4 (x45 x29 x29)) (x126 (x45 x149 x149)) (x154 (x45 x105 x29)) (x78 (x45 x105 x149)) (x71 (x45 x149 x112)) (x21 (x45 x29 x105)) (x15 (x45 x112 x149)) (x155 (x45 x29 x149)) (x97 (x45 x6 x6)) (x122 (x45 x6 x105)) (x151 (x45 x112 x6)) (x140 (x45 x149 x105)) (x93 (x45 x105 x105)) (x96 (x45 x149 x29)) (x58 (x45 x105 x6)) (x133 (x45 x6 x112)) (x39 (x45 x112 x29)) (x46 (x45 x149 x6)) (x139 (x45 x105 x112)) (x31 (x45 x6 x29)) (x159 (x45 x112 x112)) (x142 (x45 x6 x149))) (or (or (or (and (not (= x6 (x45 x38 x38))) (and (and (and (not (= (x45 x11 x11) x112)) (not (= x149 (x45 x155 x155)))) (not (= x29 (x45 x4 x4)))) (not (= x105 (x45 x21 x21))))) (or (and (and (not (= (x45 x140 x140) x105)) (and (and (not (= x112 (x45 x71 x71))) (not (= (x45 x126 x126) x149))) (not (= (x45 x96 x96) x29)))) (not (= (x45 x46 x46) x6))) (and (and (and (and (not (= (x45 x15 x15) x149)) (not (= (x45 x159 x159) x112))) (not (= x29 (x45 x39 x39)))) (not (= (x45 x86 x86) x105))) (not (= (x45 x151 x151) x6))))) (and (not (= x6 (x45 x58 x58))) (and (and (and (not (= x149 (x45 x78 x78))) (not (= x112 (x45 x139 x139)))) (not (= (x45 x154 x154) x29))) (not (= x105 (x45 x93 x93)))))) (and (and (not (= (x45 x122 x122) x105)) (and (not (= x29 (x45 x31 x31))) (and (not (= x112 (x45 x133 x133))) (not (= x149 (x45 x142 x142)))))) (not (= (x45 x97 x97) x6))))))
(assert (let ((x86 (x45 x105 x105)) (x151 (x45 x6 x6)) (x39 (x45 x29 x29)) (x15 (x45 x149 x149)) (x159 (x45 x112 x112))) (or (and (not (= x6 x151)) (and (not (= x86 x6)) (and (and (not (= x159 x6)) (not (= x6 x15))) (not (= x6 x39))))) (or (or (and (not (= x29 x151)) (and (and (and (not (= x29 x159)) (not (= x15 x29))) (not (= x29 x39))) (not (= x29 x86)))) (or (and (not (= x151 x149)) (and (and (not (= x39 x149)) (and (not (= x15 x149)) (not (= x149 x159)))) (not (= x86 x149)))) (and (and (and (not (= x112 x39)) (and (not (= x112 x159)) (not (= x15 x112)))) (not (= x86 x112))) (not (= x112 x151))))) (and (not (= x105 x151)) (and (not (= x86 x105)) (and (not (= x105 x39)) (and (not (= x159 x105)) (not (= x105 x15))))))))))
(assert (let ((x71 (not (= x112 (x45 x112 x29)))) (x142 (not (= (x45 x29 x6) x29))) (x46 (not (= (x45 x105 x112) x105))) (x31 (not (= x6 (x45 x6 x105)))) (x93 (not (= (x45 x6 x149) x6))) (x21 (not (= (x45 x105 x29) x105))) (x4 (not (= x149 (x45 x149 x105)))) (x140 (not (= x29 (x45 x29 x29)))) (x11 (not (= (x45 x112 x105) x112))) (x139 (not (= x105 (x45 x105 x105)))) (x97 (not (= x6 (x45 x6 x6)))) (x38 (not (= (x45 x29 x105) x29))) (x133 (not (= x6 (x45 x6 x29)))) (x96 (not (= x149 (x45 x149 x29)))) (x126 (not (= (x45 x29 x149) x29))) (x159 (not (= x112 (x45 x112 x112)))) (x78 (not (= x6 (x45 x6 x112)))) (x86 (not (= x149 (x45 x149 x149)))) (x155 (not (= (x45 x105 x149) x105))) (x151 (not (= x29 (x45 x29 x112)))) (x15 (not (= x149 (x45 x149 x112)))) (x122 (not (= x105 (x45 x105 x6)))) (x58 (not (= (x45 x149 x6) x149))) (x154 (not (= x112 (x45 x112 x6)))) (x39 (not (= (x45 x112 x149) x112)))) (and (and (or x97 x97) (and (and (and (or x154 x78) (or x58 x93)) (or x133 x142)) (or x31 x122))) (and (and (and (and (or x154 x78) (and (and (or x151 x71) (and (or x39 x15) (or x159 x159))) (or x11 x46))) (and (and (and (or x96 x126) (and (or x15 x39) (or x86 x86))) (or x4 x155)) (or x93 x58))) (and (or x133 x142) (and (or x38 x21) (and (or x140 x140) (and (or x126 x96) (or x71 x151)))))) (and (and (and (or x38 x21) (and (or x11 x46) (or x4 x155))) (or x139 x139)) (or x122 x31))))))
(assert (not (and (and (and (= (x45 x6 x29) x29) (and (and (and (= (x45 x105 x6) x105) (and (= x112 (x45 x105 x105)) (and (and (= (x45 x105 x149) x29) (and (and (= x29 (x45 x29 x6)) (and (and (and (and (and (and (= (x45 x149 x105) x29) (and (= (x45 x149 x29) x105) (and (and (= (x45 x149 x112) x112) (and (= x6 (x45 x112 x6)) (and (= x105 (x45 x112 x105)) (and (= (x45 x112 x29) x149) (and (= (x45 x112 x149) x112) (= (x45 x112 x112) x29)))))) (= (x45 x149 x149) x6)))) (= (x45 x149 x6) x149)) (= (x45 x29 x112) x105)) (= (x45 x29 x149) x149)) (= x112 (x45 x29 x29))) (= x6 (x45 x29 x105)))) (= x149 (x45 x105 x112)))) (= x6 (x45 x105 x29))))) (= x6 (x45 x6 x112))) (= x105 (x45 x6 x149)))) (= (x45 x6 x105) x149)) (= x112 (x45 x6 x6)))))
(assert (or (and (not (= x6 (x45 (x45 x6 x6) x6))) (and (not (= (x45 (x45 x105 x6) x105) x6)) (and (and (not (= x6 (x45 (x45 x149 x6) x149))) (not (= (x45 (x45 x112 x6) x112) x6))) (not (= (x45 (x45 x29 x6) x29) x6))))) (or (or (or (and (and (and (and (not (= x112 (x45 (x45 x149 x112) x149))) (not (= x112 (x45 (x45 x112 x112) x112)))) (not (= x112 (x45 (x45 x29 x112) x29)))) (not (= (x45 (x45 x105 x112) x105) x112))) (not (= x112 (x45 (x45 x6 x112) x6)))) (and (and (not (= x149 (x45 (x45 x105 x149) x105))) (and (and (not (= x149 (x45 (x45 x112 x149) x112))) (not (= (x45 (x45 x149 x149) x149) x149))) (not (= x149 (x45 (x45 x29 x149) x29))))) (not (= x149 (x45 (x45 x6 x149) x6))))) (and (and (not (= x29 (x45 (x45 x105 x29) x105))) (and (and (not (= x29 (x45 (x45 x149 x29) x149))) (not (= (x45 (x45 x112 x29) x112) x29))) (not (= (x45 (x45 x29 x29) x29) x29)))) (not (= (x45 (x45 x6 x29) x6) x29)))) (and (and (not (= (x45 (x45 x105 x105) x105) x105)) (and (and (not (= x105 (x45 (x45 x112 x105) x112))) (not (= x105 (x45 (x45 x149 x105) x149)))) (not (= (x45 (x45 x29 x105) x29) x105)))) (not (= (x45 (x45 x6 x105) x6) x105))))))
(assert (let ((x142 (x45 x149 x6)) (x40 (x45 x6 x149)) (x50 (x45 x6 x105)) (x5 (x45 x6 x6)) (x151 (x45 x112 x105)) (x71 (x45 x112 x6)) (x68 (x45 x29 x29)) (x140 (x45 x29 x112)) (x39 (x45 x112 x149)) (x58 (x45 x149 x29)) (x15 (x45 x112 x112)) (x133 (x45 x149 x105)) (x86 (x45 x112 x29)) (x46 (x45 x105 x112)) (x114 (x45 x105 x105)) (x94 (x45 x105 x6)) (x143 (x45 x105 x29)) (x146 (x45 x6 x29)) (x47 (x45 x29 x6)) (x96 (x45 x149 x112)) (x11 (x45 x6 x112)) (x3 (x45 x105 x149)) (x93 (x45 x149 x149)) (x19 (x45 x29 x105)) (x97 (x45 x29 x149))) (let ((x124 (= x105 x93)) (x92 (= x6 x19)) (x137 (= x105 x68)) (x43 (= x6 x39)) (x139 (= x39 x112)) (x61 (= x11 x6)) (x17 (= x142 x29)) (x16 (= x112 x58)) (x13 (= x140 x29)) (x118 (= x3 x112)) (x150 (= x142 x105)) (x60 (= x149 x5)) (x120 (= x112 x94)) (x27 (= x47 x29)) (x100 (= x46 x149)) (x89 (= x105 x58)) (x88 (= x105 x19)) (x62 (= x105 x146)) (x135 (= x6 x114)) (x57 (= x29 x94)) (x144 (= x149 x114)) (x84 (= x149 x68)) (x115 (= x6 x133)) (x55 (= x105 x47)) (x85 (= x58 x149)) (x56 (= x19 x149)) (x37 (= x149 x50)) (x73 (= x149 x142)) (x91 (= x133 x29)) (x122 (= x93 x149)) (x51 (= x151 x112)) (x65 (= x47 x112)) (x32 (= x29 x93)) (x119 (= x133 x105)) (x14 (= x3 x105)) (x116 (= x71 x105)) (x131 (= x97 x6)) (x69 (= x112 x143)) (x81 (= x86 x112)) (x23 (= x149 x146)) (x109 (= x19 x112)) (x132 (= x94 x149)) (x159 (= x112 x15)) (x98 (= x40 x149)) (x121 (= x94 x6)) (x157 (= x71 x149)) (x110 (= x112 x5)) (x70 (= x112 x140)) (x53 (= x105 x97)) (x128 (= x40 x6)) (x158 (= x58 x6)) (x36 (= x149 x47)) (x141 (= x29 x86)) (x20 (= x68 x6)) (x130 (= x29 x143)) (x101 (= x114 x29)) (x138 (= x105 x114)) (x38 (= x96 x112)) (x66 (= x105 x151)) (x30 (= x19 x29)) (x78 (= x93 x112)) (x48 (= x146 x112)) (x153 (= x58 x29)) (x152 (= x11 x149)) (x75 (= x97 x112)) (x148 (= x39 x29)) (x44 (= x112 x114)) (x74 (= x3 x29)) (x155 (= x15 x29)) (x41 (= x142 x6)) (x12 (= x86 x6)) (x54 (= x105 x5)) (x4 (= x105 x15)) (x67 (= x151 x29)) (x145 (= x112 x11)) (x63 (= x46 x105)) (x33 (= x29 x40)) (x107 (= x50 x112)) (x31 (= x149 x39)) (x117 (= x112 x133)) (x79 (= x3 x149)) (x26 (= x105 x143)) (x156 (= x29 x96)) (x42 (= x29 x46)) (x2 (= x40 x105)) (x147 (= x143 x6)) (x21 (= x6 x15)) (x52 (= x112 x40)) (x136 (= x6 x46)) (x59 (= x50 x29)) (x7 (= x6 x47)) (x80 (= x105 x11)) (x123 (= x149 x97)) (x104 (= x29 x71)) (x28 (= x140 x149)) (x125 (= x68 x112)) (x111 (= x71 x6)) (x24 (= x86 x149)) (x95 (= x140 x105)) (x126 (= x149 x15)) (x64 (= x142 x112)) (x87 (= x86 x105)) (x134 (= x6 x96)) (x83 (= x112 x71)) (x8 (= x68 x29)) (x34 (= x6 x3)) (x127 (= x149 x143)) (x22 (= x151 x149)) (x10 (= x50 x105)) (x18 (= x6 x5)) (x90 (= x6 x50)) (x49 (= x5 x29)) (x99 (= x105 x96)) (x113 (= x29 x11)) (x25 (= x29 x146)) (x76 (= x105 x94)) (x154 (= x149 x96)) (x82 (= x97 x29)) (x129 (= x93 x6)) (x103 (= x6 x146)) (x106 (= x140 x6)) (x108 (= x112 x46)) (x77 (= x151 x6)) (x9 (= x133 x149)) (x1 (= x39 x105))) (and (and (and (and (and (and (and (or (or (or x95 (or x99 x4)) x63) x80) (or (or (or x87 (or x1 x4)) x66) x116)) (and (and (or (or x67 (or (or x148 x155) x141)) x104) (or (or x42 (or (or x155 x156) x13)) x113)) (and (and (or x157 (or x22 (or (or x126 x31) x24))) (or (or (or (or x126 x154) x28) x100) x152)) (and (or (or x108 (or x70 (or x38 x159))) x145) (or (or x51 (or (or x139 x159) x81)) x83))))) (and (or (or (or x12 (or x21 x43)) x77) x111) (or (or x136 (or (or x134 x21) x106)) x61))) (and (and (or (or x115 (or x158 (or x129 x134))) x41) (or (or (or (or x43 x129) x131) x34) x128)) (and (and (and (or (or x74 (or (or x32 x148) x82)) x33) (or (or (or (or x32 x156) x153) x91) x17)) (and (and (or (or (or x75 (or x139 x78)) x118) x52) (or (or (or x16 (or x38 x78)) x117) x64)) (and (or x73 (or x9 (or x85 (or x122 x154)))) (or x98 (or (or x123 (or x122 x31)) x79))))) (and (or x150 (or x119 (or (or x99 x124) x89))) (or x2 (or (or (or x124 x1) x53) x14)))))) (and (and (or (or (or x20 (or x158 x12)) x147) x103) (or (or x92 (or (or x131 x106) x20)) x7)) (and (and (and (and (or (or x127 (or (or x24 x85) x84)) x23) (or (or (or x84 (or x28 x123)) x56) x36)) (and (or x48 (or (or (or x81 x16) x125) x69)) (or (or (or (or x75 x70) x125) x109) x65))) (and (or x27 (or (or (or x82 x13) x8) x30)) (or (or x130 (or (or x141 x153) x8)) x25))) (and (or (or (or (or x87 x89) x137) x26) x62) (or (or (or x137 (or x95 x53)) x88) x55))))) (and (and (or (or (or x147 (or x34 x136)) x135) x121) (or x90 (or x135 (or (or x77 x115) x92)))) (and (and (and (or x57 (or x101 (or x130 (or x74 x42)))) (or (or (or x30 (or x67 x91)) x101) x59)) (and (and (or x132 (or x144 (or (or x100 x79) x127))) (or (or x144 (or x56 (or x9 x22))) x37)) (and (or x120 (or x44 (or x69 (or x108 x118)))) (or x107 (or (or x109 (or x51 x117)) x44))))) (and (or (or (or x26 (or x14 x63)) x138) x76) (or x10 (or x138 (or x88 (or x66 x119)))))))) (and (and (or x18 (or (or (or x41 x111) x7) x121)) (or x18 (or x90 (or (or x61 x128) x103)))) (and (and (or (or (or (or x80 x2) x62) x10) x54) (or x54 (or x76 (or (or x116 x150) x55)))) (and (and (or x49 (or (or (or x17 x104) x27) x57)) (or (or (or (or x33 x113) x25) x59) x49)) (and (and (or x110 (or (or (or x83 x64) x65) x120)) (or x110 (or (or x48 (or x52 x145)) x107))) (and (or (or (or (or x73 x157) x36) x132) x60) (or (or x37 (or x23 (or x152 x98))) x60))))))))))
(assert (or (or (and (not (= (x45 x105 (x45 x105 x6)) x6)) (and (and (not (= x29 (x45 x105 (x45 x105 x29)))) (and (not (= x112 (x45 x105 (x45 x105 x112)))) (not (= x149 (x45 x105 (x45 x105 x149)))))) (not (= (x45 x105 (x45 x105 x105)) x105)))) (or (or (and (not (= (x45 x149 (x45 x149 x6)) x6)) (and (not (= x105 (x45 x149 (x45 x149 x105)))) (and (not (= x29 (x45 x149 (x45 x149 x29)))) (and (not (= x112 (x45 x149 (x45 x149 x112)))) (not (= x149 (x45 x149 (x45 x149 x149)))))))) (and (not (= (x45 x112 (x45 x112 x6)) x6)) (and (not (= x105 (x45 x112 (x45 x112 x105)))) (and (and (not (= x112 (x45 x112 (x45 x112 x112)))) (not (= (x45 x112 (x45 x112 x149)) x149))) (not (= (x45 x112 (x45 x112 x29)) x29)))))) (and (not (= x6 (x45 x29 (x45 x29 x6)))) (and (not (= (x45 x29 (x45 x29 x105)) x105)) (and (not (= x29 (x45 x29 (x45 x29 x29)))) (and (not (= x149 (x45 x29 (x45 x29 x149)))) (not (= (x45 x29 (x45 x29 x112)) x112)))))))) (and (not (= x6 (x45 x6 (x45 x6 x6)))) (and (and (and (not (= (x45 x6 (x45 x6 x149)) x149)) (not (= (x45 x6 (x45 x6 x112)) x112))) (not (= (x45 x6 (x45 x6 x29)) x29))) (not (= (x45 x6 (x45 x6 x105)) x105))))))
(assert (or (or (or (and (not (= (x45 (x45 x29 x6) x29) x6)) (and (and (not (= x29 (x45 (x45 x29 x29) x29))) (and (not (= x149 (x45 (x45 x29 x149) x29))) (not (= (x45 (x45 x29 x112) x29) x112)))) (not (= x105 (x45 (x45 x29 x105) x29))))) (or (and (not (= (x45 (x45 x112 x6) x112) x6)) (and (and (and (not (= x149 (x45 (x45 x112 x149) x112))) (not (= x112 (x45 (x45 x112 x112) x112)))) (not (= x29 (x45 (x45 x112 x29) x112)))) (not (= x105 (x45 (x45 x112 x105) x112))))) (and (not (= (x45 (x45 x149 x6) x149) x6)) (and (and (and (not (= (x45 (x45 x149 x149) x149) x149)) (not (= x112 (x45 (x45 x149 x112) x149)))) (not (= x29 (x45 (x45 x149 x29) x149)))) (not (= x105 (x45 (x45 x149 x105) x149))))))) (and (not (= (x45 (x45 x105 x6) x105) x6)) (and (not (= x105 (x45 (x45 x105 x105) x105))) (and (and (not (= (x45 (x45 x105 x149) x105) x149)) (not (= x112 (x45 (x45 x105 x112) x105)))) (not (= x29 (x45 (x45 x105 x29) x105))))))) (and (and (and (and (not (= (x45 (x45 x6 x112) x6) x112)) (not (= (x45 (x45 x6 x149) x6) x149))) (not (= (x45 (x45 x6 x29) x6) x29))) (not (= (x45 (x45 x6 x105) x6) x105))) (not (= x6 (x45 (x45 x6 x6) x6))))))
(assert (or (= x6 (x45 (x45 x6 x6) x6)) (or (= (x45 (x45 x105 x105) x105) x105) (or (= x29 (x45 (x45 x29 x29) x29)) (or (= x149 (x45 (x45 x149 x149) x149)) (= x112 (x45 (x45 x112 x112) x112)))))))
(assert (let ((x86 (x45 x105 x105)) (x151 (x45 x6 x6)) (x159 (x45 x112 x112)) (x15 (x45 x149 x149)) (x39 (x45 x29 x29))) (or (= (x45 x151 x151) x6) (or (or (or (= (x45 x15 x15) x149) (= x112 (x45 x159 x159))) (= (x45 x39 x39) x29)) (= (x45 x86 x86) x105)))))
(assert (and (and (and (not (= x29 (x45 x29 x29))) (and (not (= (x45 x112 x112) x112)) (not (= x149 (x45 x149 x149))))) (not (= (x45 x105 x105) x105))) (not (= x6 (x45 x6 x6)))))
(assert (let ((x86 (x45 x105 x112)) (x154 (x45 x29 x105)) (x93 (x45 x105 x105)) (x58 (x45 x6 x105)) (x159 (x45 x112 x112)) (x151 (x45 x6 x112)) (x133 (x45 x112 x6)) (x140 (x45 x105 x149)) (x38 (x45 x6 x29)) (x126 (x45 x149 x149)) (x122 (x45 x105 x6)) (x21 (x45 x105 x29)) (x46 (x45 x6 x149)) (x142 (x45 x149 x6)) (x71 (x45 x112 x149)) (x96 (x45 x29 x149)) (x97 (x45 x6 x6)) (x155 (x45 x149 x29)) (x139 (x45 x112 x105)) (x11 (x45 x112 x29)) (x78 (x45 x149 x105)) (x39 (x45 x29 x112)) (x31 (x45 x29 x6)) (x15 (x45 x149 x112)) (x4 (x45 x29 x29))) (and (and (and (and (and (and (and (and (not (= x78 x93)) (and (and (not (= x58 x139)) (and (not (= x93 x139)) (and (not (= x78 x139)) (not (= x154 x139))))) (not (= x154 x78)))) (not (= x78 x58))) (not (= x93 x154))) (not (= x154 x58))) (not (= x93 x58))) (and (and (not (= x21 x38)) (and (not (= x4 x38)) (and (not (= x4 x21)) (and (and (not (= x21 x155)) (and (not (= x4 x155)) (and (and (not (= x11 x21)) (and (not (= x11 x155)) (not (= x4 x11)))) (not (= x38 x11))))) (not (= x38 x155)))))) (and (and (not (= x86 x151)) (and (not (= x39 x151)) (and (not (= x86 x39)) (and (not (= x151 x15)) (and (and (and (and (not (= x159 x86)) (and (not (= x39 x159)) (not (= x159 x15)))) (not (= x151 x159))) (not (= x15 x39))) (not (= x15 x86))))))) (and (and (not (= x96 x46)) (and (and (not (= x46 x126)) (and (and (and (not (= x46 x71)) (and (and (not (= x126 x71)) (not (= x71 x96))) (not (= x71 x140)))) (not (= x96 x126))) (not (= x140 x126)))) (not (= x140 x96)))) (not (= x46 x140)))))) (and (and (and (not (= x122 x31)) (and (and (and (not (= x31 x142)) (and (and (and (not (= x31 x133)) (not (= x133 x142))) (not (= x122 x133))) (not (= x97 x133)))) (not (= x122 x142))) (not (= x97 x142)))) (not (= x31 x97))) (not (= x97 x122)))) (and (and (and (and (and (and (and (and (not (= x97 x151)) (and (not (= x58 x151)) (and (not (= x151 x46)) (not (= x38 x151))))) (not (= x38 x46))) (not (= x46 x58))) (not (= x97 x46))) (not (= x58 x38))) (not (= x38 x97))) (not (= x97 x58))) (and (and (and (not (= x31 x154)) (and (and (and (and (not (= x96 x154)) (and (and (not (= x39 x31)) (and (not (= x154 x39)) (and (not (= x39 x4)) (not (= x96 x39))))) (not (= x96 x4)))) (not (= x31 x96))) (not (= x4 x154))) (not (= x31 x4)))) (and (and (and (and (not (= x78 x155)) (and (not (= x126 x142)) (and (not (= x126 x78)) (and (and (not (= x142 x15)) (and (not (= x15 x78)) (and (not (= x15 x155)) (not (= x126 x15))))) (not (= x126 x155)))))) (not (= x142 x155))) (not (= x78 x142))) (and (not (= x139 x133)) (and (not (= x133 x11)) (and (not (= x139 x11)) (and (not (= x133 x71)) (and (not (= x139 x71)) (and (not (= x71 x11)) (and (not (= x133 x159)) (and (and (not (= x11 x159)) (not (= x159 x71))) (not (= x139 x159)))))))))))) (and (and (not (= x21 x122)) (and (and (not (= x122 x140)) (and (not (= x93 x140)) (and (not (= x21 x140)) (and (and (not (= x86 x93)) (and (not (= x140 x86)) (not (= x86 x21)))) (not (= x122 x86)))))) (not (= x93 x21)))) (not (= x122 x93))))))))
(assert (and (= x6 (x45 x105 x29)) (and (and (= x149 (x45 x112 x29)) (= x29 (x45 x112 x112))) (= (x45 x29 x112) x105))))
(assert (and (and (not (= x6 x29)) (and (not (= x105 x29)) (and (and (and (not (= x29 x149)) (and (and (not (= x112 x105)) (and (not (= x29 x112)) (not (= x149 x112)))) (not (= x112 x6)))) (not (= x105 x149))) (not (= x149 x6))))) (not (= x6 x105))))
(assert (let ((x75 (x45 x149 x149)) (x123 (x45 x105 x149)) (x82 (x45 x105 x29)) (x156 (x45 x112 x149)) (x3 (x45 x112 x112)) (x158 (x45 x6 x105)) (x99 (x45 x29 x112)) (x28 (x45 x149 x105)) (x13 (x45 x29 x105)) (x43 (x45 x6 x112)) (x141 (x45 x29 x6)) (x68 (x45 x149 x6)) (x153 (x45 x6 x29)) (x143 (x45 x29 x29)) (x100 (x45 x6 x6)) (x12 (x45 x105 x6)) (x32 (x45 x112 x29)) (x16 (x45 x149 x29)) (x106 (x45 x105 x105)) (x125 (x45 x29 x149)) (x1 (x45 x112 x105)) (x148 (x45 x149 x112)) (x19 (x45 x6 x149)) (x134 (x45 x112 x6)) (x124 (x45 x105 x112))) (let ((x151 (not (= x112 x99))) (x4 (not (= x112 x28))) (x61 (not (= x43 x6))) (x84 (not (= x149 x16))) (x129 (not (= x148 x149))) (x88 (not (= x29 x153))) (x15 (not (= x148 x112))) (x31 (not (= x112 x158))) (x21 (not (= x82 x112))) (x65 (not (= x1 x105))) (x81 (not (= x75 x149))) (x147 (not (= x29 x100))) (x36 (not (= x153 x105))) (x108 (not (= x149 x134))) (x133 (not (= x153 x112))) (x137 (not (= x13 x149))) (x8 (not (= x149 x124))) (x142 (not (= x141 x112))) (x50 (not (= x16 x29))) (x40 (not (= x149 x3))) (x26 (not (= x29 x134))) (x30 (not (= x29 x82))) (x52 (not (= x32 x105))) (x135 (not (= x75 x105))) (x7 (not (= x158 x6))) (x155 (not (= x123 x112))) (x131 (not (= x149 x106))) (x9 (not (= x99 x29))) (x42 (not (= x143 x29))) (x152 (not (= x82 x105))) (x25 (not (= x3 x6))) (x96 (not (= x16 x112))) (x159 (not (= x3 x112))) (x78 (not (= x112 x43))) (x67 (not (= x123 x29))) (x119 (not (= x29 x68))) (x138 (not (= x29 x141))) (x89 (not (= x149 x82))) (x127 (not (= x3 x29))) (x17 (not (= x75 x6))) (x114 (not (= x148 x29))) (x77 (not (= x3 x105))) (x11 (not (= x112 x1))) (x130 (not (= x1 x29))) (x157 (not (= x105 x19))) (x62 (not (= x124 x6))) (x140 (not (= x143 x112))) (x73 (not (= x105 x68))) (x118 (not (= x19 x149))) (x79 (not (= x100 x149))) (x94 (not (= x29 x156))) (x113 (not (= x12 x105))) (x128 (not (= x134 x6))) (x107 (not (= x16 x105))) (x97 (not (= x112 x100))) (x34 (not (= x12 x29))) (x57 (not (= x32 x6))) (x63 (not (= x29 x106))) (x53 (not (= x123 x149))) (x144 (not (= x29 x125))) (x20 (not (= x149 x43))) (x87 (not (= x149 x28))) (x48 (not (= x105 x125))) (x59 (not (= x6 x148))) (x14 (not (= x29 x43))) (x85 (not (= x125 x149))) (x93 (not (= x112 x19))) (x10 (not (= x1 x6))) (x139 (not (= x112 x106))) (x22 (not (= x29 x75))) (x90 (not (= x6 x68))) (x83 (not (= x105 x143))) (x80 (not (= x6 x16))) (x49 (not (= x125 x6))) (x116 (not (= x123 x6))) (x18 (not (= x6 x100))) (x104 (not (= x6 x156))) (x33 (not (= x105 x100))) (x71 (not (= x32 x112))) (x60 (not (= x105 x158))) (x64 (not (= x124 x105))) (x98 (not (= x105 x13))) (x103 (not (= x19 x6))) (x136 (not (= x158 x29))) (x27 (not (= x6 x99))) (x37 (not (= x43 x105))) (x117 (not (= x149 x141))) (x110 (not (= x28 x105))) (x41 (not (= x141 x6))) (x146 (not (= x149 x143))) (x92 (not (= x105 x156))) (x69 (not (= x149 x68))) (x154 (not (= x112 x134))) (x56 (not (= x32 x29))) (x66 (not (= x29 x19))) (x24 (not (= x32 x149))) (x95 (not (= x1 x149))) (x23 (not (= x106 x105))) (x111 (not (= x6 x153))) (x38 (not (= x13 x112))) (x109 (not (= x158 x149))) (x101 (not (= x29 x13))) (x47 (not (= x99 x149))) (x74 (not (= x29 x124))) (x55 (not (= x82 x6))) (x5 (not (= x134 x105))) (x46 (not (= x112 x124))) (x122 (not (= x112 x12))) (x120 (not (= x105 x123))) (x2 (not (= x6 x143))) (x51 (not (= x149 x153))) (x150 (not (= x28 x6))) (x58 (not (= x112 x68))) (x70 (not (= x149 x156))) (x91 (not (= x28 x29))) (x39 (not (= x112 x156))) (x132 (not (= x141 x105))) (x44 (not (= x149 x12))) (x126 (not (= x112 x125))) (x86 (not (= x112 x75))) (x54 (not (= x6 x106))) (x121 (not (= x12 x6))) (x145 (not (= x105 x99))) (x76 (not (= x13 x6))) (x115 (not (= x105 x148)))) (or (and (and (and (or x7 x121) (and (or x111 x41) (and (or x61 x128) (or x90 x103)))) (or x18 x18)) (and (and (and (and (or x76 x55) (and (and (or x27 x57) (or x49 x80)) (or x2 x2))) (or x111 x41)) (and (and (or x61 x128) (and (and (and (or x25 x25) (or x104 x59)) (or x27 x57)) (or x62 x10))) (and (or x90 x103) (and (or x150 x116) (and (and (or x59 x104) (or x17 x17)) (or x80 x49)))))) (and (or x7 x121) (and (or x54 x54) (and (and (or x150 x116) (or x10 x62)) (or x55 x76)))))) (or (or (or (and (and (and (or x122 x31) (and (and (or x21 x38) (and (or x155 x4) (or x11 x46))) (or x139 x139))) (and (and (and (or x154 x78) (and (and (and (or x159 x159) (or x15 x39)) (or x151 x71)) (or x46 x11))) (and (and (and (or x126 x96) (and (or x86 x86) (or x39 x15))) (or x4 x155)) (or x93 x58))) (and (and (or x21 x38) (and (and (or x126 x96) (or x151 x71)) (or x140 x140))) (or x142 x133)))) (and (or x97 x97) (and (and (or x142 x133) (and (or x78 x154) (or x93 x58))) (or x122 x31)))) (and (and (and (and (and (and (or x8 x95) (and (and (or x40 x40) (or x129 x70)) (or x24 x47))) (or x108 x20)) (and (and (and (and (or x81 x81) (or x70 x129)) (or x85 x84)) (or x87 x53)) (or x118 x69))) (and (or x51 x117) (and (and (or x146 x146) (and (or x47 x24) (or x85 x84))) (or x89 x137)))) (and (or x44 x109) (and (and (or x89 x137) (and (or x87 x53) (or x8 x95))) (or x131 x131)))) (and (or x79 x79) (and (and (or x51 x117) (and (or x118 x69) (or x20 x108))) (or x44 x109))))) (and (and (and (or x136 x34) (and (or x138 x88) (and (or x26 x14) (or x66 x119)))) (or x147 x147)) (and (and (and (or x138 x88) (and (and (and (or x50 x144) (or x9 x56)) (or x42 x42)) (or x101 x30))) (and (and (or x14 x26) (and (and (or x56 x9) (and (or x114 x94) (or x127 x127))) (or x130 x74))) (and (or x119 x66) (and (or x91 x67) (and (and (or x22 x22) (or x114 x94)) (or x50 x144)))))) (and (or x136 x34) (and (and (and (or x130 x74) (or x91 x67)) (or x30 x101)) (or x63 x63)))))) (and (and (and (or x60 x113) (and (or x23 x23) (and (or x98 x152) (and (or x110 x120) (or x65 x64))))) (and (and (and (and (or x120 x110) (and (and (or x115 x92) (or x135 x135)) (or x107 x48))) (or x73 x157)) (and (and (or x64 x65) (and (and (or x92 x115) (or x77 x77)) (or x145 x52))) (or x37 x5))) (and (or x36 x132) (and (or x152 x98) (and (or x83 x83) (and (or x52 x145) (or x48 x107))))))) (and (and (and (or x132 x36) (and (or x73 x157) (or x5 x37))) (or x113 x60)) (or x33 x33))))))))
(assert (or (and (and (not (= (x45 x105 x6) x105)) (and (not (= (x45 x29 x6) x29)) (and (not (= x112 (x45 x112 x6))) (not (= x149 (x45 x149 x6)))))) (not (= (x45 x6 x6) x6))) (or (and (and (and (and (not (= x112 (x45 x112 x105))) (not (= (x45 x149 x105) x149))) (not (= (x45 x29 x105) x29))) (not (= (x45 x105 x105) x105))) (not (= x6 (x45 x6 x105)))) (or (and (not (= x6 (x45 x6 x29))) (and (and (and (not (= x149 (x45 x149 x29))) (not (= (x45 x112 x29) x112))) (not (= (x45 x29 x29) x29))) (not (= x105 (x45 x105 x29))))) (or (and (not (= (x45 x6 x149) x6)) (and (not (= x105 (x45 x105 x149))) (and (not (= x29 (x45 x29 x149))) (and (not (= (x45 x112 x149) x112)) (not (= (x45 x149 x149) x149)))))) (and (and (not (= x105 (x45 x105 x112))) (and (and (not (= x149 (x45 x149 x112))) (not (= (x45 x112 x112) x112))) (not (= x29 (x45 x29 x112))))) (not (= x6 (x45 x6 x112)))))))))
(check-sat)
(exit)
